20	13000	3000	1200
2147	813	590
3588	754	771
3329	745	686
4155	719	577
3680	775	561
3697	515	502
2385	882	763
2497	660	583
3145	792	755
2544	839	577
4341	549	572
4968	776	651
3387	798	623
2190	680	786
3677	685	505
4985	734	551
3011	536	693
2505	599	603
3117	699	532
2308	850	701
